NAME: ./prFile/tspFile/tsp_file50.tsp
COMMENT: TSP file generated by Python
TYPE: TSP
DIMENSION: 40
EDGE_WEIGHT_TYPE: EUC_2D
NODE_COORD_SECTION
1 18 79
2 12 54
3 46 89
4 46 67
5 8 9
6 64 64
7 72 65
8 70 55
9 38 60
10 73 23
11 18 53
12 71 36
13 91 43
14 68 20
15 75 15
16 32 61
17 50 19
18 99 51
19 93 80
20 44 36
21 2 21
22 1 26
23 26 61
24 90 32
25 93 69
26 63 46
27 92 11
28 68 9
29 4 4
30 9 51
31 100 96
32 45 84
33 28 64
34 27 16
35 35 8
36 10 8
37 37 97
38 88 81
39 6 69
40 64 63
EOF
